Maximize
  - 2.8912280435206 edge_0_2_0_0 - 2.9991500446404 edge_0_3_0_0
   - 3.245458603205 edge_0_4_0_0 - 2.794003493519 edge_0_5_0_0
   - 4.59684693122 edge_0_6_0_0 - 4.1014917260454 edge_0_7_0_0
   - 3.8549173349357 edge_0_8_0_0 - 3.4566961140648 edge_0_9_0_0
   - 0.8175198099620901 edge_0_10_0_0 - 4.0917177904712 edge_0_13_0_0
   - 2.1418346186732 edge_0_16_0_0 - 3.8209378993485 edge_0_19_0_0
   - 1.029593538666 edge_0_20_0_0 + 2.853460141596827 edge_2_3_0_0
   + 1.852541314504362 edge_2_4_0_0 + 1.384571275398147 edge_2_5_0_0
   + 0.1994516185916149 edge_2_6_0_0 + 1.350889617907971 edge_2_7_0_0
   + 2.290174980129045 edge_2_8_0_0 + 0.3624792892005803 edge_2_9_0_0
   + 0.9592614681412587 edge_2_10_0_0 + 0.2887917399347189 edge_2_13_0_0
   + 0.6540505741599822 edge_2_16_0_0 + 0.7600690951767755 edge_2_17_0_0
   - 0.6217153706342728 edge_2_18_0_0 - 1.270759619984891 edge_2_19_0_0
   - 0.9278245443746032 edge_2_20_0_0 + 0.8860274272967534 edge_3_2_0_0
   + 0.8975959918523793 edge_3_4_0_0 + 0.9757709750647711 edge_3_5_0_0
   + 0.2939142609048184 edge_3_6_0_0 + 0.9361221073982575 edge_3_7_0_0
   + 0.4033852005990736 edge_3_8_0_0 + 0.2888320189749697 edge_3_9_0_0
   + 0.0750908202691803 edge_3_10_0_0 - 1.172079947462084 edge_3_16_0_0
   - 0.3403334996841847 edge_3_17_0_0 - 0.3515839837371478 edge_3_18_0_0
   - 0.8523313487096061 edge_3_19_0_0 + 0.0654407954561756 edge_3_20_0_0
   + 0.689769784893815 edge_3_22_0_0 + 0.1644542109310243 edge_4_2_0_0
   + 1.102439521583396 edge_4_3_0_0 + 0.5581004786665922 edge_4_5_0_0
   + 0.2569462001049169 edge_4_6_0_0 - 0.2133375871857909 edge_4_7_0_0
   + 0.825791448390675 edge_4_8_0_0 - 0.1743381347621644 edge_4_9_0_0
   + 0.5337709815075967 edge_4_10_0_0 - 0.8905906610839054 edge_4_11_0_0
   - 0.7887887920639124 edge_4_16_0_0 + 0.968717535422265 edge_4_17_0_0
   - 1.015523828015455 edge_4_18_0_0 - 0.7049782767181387 edge_4_20_0_0
   + 2.1366692908925 edge_4_22_0_0 + 2.886305003131763 edge_5_2_0_0
   + 2.681752293220853 edge_5_3_0_0 + 2.782635065460188 edge_5_4_0_0
   + 1.55868833278694 edge_5_6_0_0 + 2.734878325505085 edge_5_7_0_0
   + 2.334517089195805 edge_5_8_0_0 + 1.356618707550155 edge_5_9_0_0
   + 1.117001047014735 edge_5_10_0_0 + 0.2503348146364604 edge_5_11_0_0
   - 0.0625624652928331 edge_5_12_0_0 + 0.4344713062639832 edge_5_13_0_0
   + 1.005809859702424 edge_5_16_0_0 + 2.662714610387662 edge_5_17_0_0
   + 2.546793292605474 edge_5_18_0_0 - 0.1554676356117005 edge_5_19_0_0
   + 0.8372149003934584 edge_5_20_0_0 - 0.381697193837181 edge_5_21_0_0
   + 5.163990446603653 edge_5_22_0_0 - 0.4947689709784095 edge_6_3_0_0
   + 0.6141054267718138 edge_6_4_0_0 + 0.5805522518902216 edge_6_5_0_0
   + 0.9356868925620851 edge_6_7_0_0 + 0.2364368499481772 edge_6_8_0_0
   - 0.4766486901915779 edge_6_9_0_0 - 0.0614821953439665 edge_6_10_0_0
   - 0.7560553923814539 edge_6_11_0_0 + 0.3188131193486429 edge_7_2_0_0
   + 0.3272125929233927 edge_7_3_0_0 + 0.9252020053442988 edge_7_4_0_0
   + 0.5026097724052868 edge_7_5_0_0 + 3.330398122501561 edge_7_6_0_0
   + 1.190329975848951 edge_7_8_0_0 + 0.5244600261406908 edge_7_9_0_0
   + 1.197726807406443 edge_7_10_0_0 + 0.2318897001636919 edge_7_11_0_0
   - 0.4232000417726859 edge_7_12_0_0 - 0.00137583555027236 edge_7_13_0_0
   - 0.0351728487405772 edge_7_16_0_0 + 0.635099757251702 edge_7_17_0_0
   + 0.2457483074461154 edge_7_18_0_0 + 0.3245508366190191 edge_7_19_0_0
   - 0.7408594174179973 edge_7_20_0_0 - 0.2994715884074057 edge_7_21_0_0
   + 1.00973636290667 edge_7_22_0_0 - 0.5343248974474647 edge_8_4_0_0
   - 0.5486291043223995 edge_8_6_0_0 - 0.1400225006878792 edge_8_7_0_0
   - 0.0505655943589002 edge_8_10_0_0 + 0.3087615296470573 edge_9_2_0_0
   + 0.2831570447614604 edge_9_3_0_0 + 0.1678909002246129 edge_9_4_0_0
   - 0.03966294804147 edge_9_5_0_0 + 0.65734330373411 edge_9_6_0_0
   + 0.1104002895435219 edge_9_7_0_0 + 0.89442954448694 edge_9_8_0_0
   + 1.209337512936542 edge_9_10_0_0 + 0.3887698327719724 edge_9_11_0_0
   - 0.3174562182164 edge_9_12_0_0 + 1.090341811476021 edge_9_13_0_0
   + 0.1891863208883678 edge_9_14_0_0 + 0.3545806594830423 edge_9_15_0_0
   + 1.303181844176132 edge_9_16_0_0 + 1.623333782839649 edge_9_17_0_0
   + 0.3265838039893206 edge_9_18_0_0 + 0.3629968712906669 edge_9_19_0_0
   + 0.218478016492806 edge_9_20_0_0 + 1.6723384440615 edge_9_22_0_0
   + 1.521370686205922 edge_10_2_0_0 + 1.542576881719672 edge_10_3_0_0
   + 0.9662510457635897 edge_10_4_0_0 + 1.01967280477477 edge_10_5_0_0
   + 0.7483912727447678 edge_10_6_0_0 + 0.9374201381087157 edge_10_7_0_0
   + 1.660082347158582 edge_10_8_0_0 + 2.50435567163673 edge_10_9_0_0
   + 1.190497717207414 edge_10_11_0_0 + 0.6963740116297541 edge_10_12_0_0
   + 1.799820758550653 edge_10_13_0_0 + 0.1111516026969059 edge_10_14_0_0
   + 2.184654090494885 edge_10_16_0_0 + 2.758069396286741 edge_10_17_0_0
   + 2.113374414682583 edge_10_18_0_0 - 0.1079570591221318 edge_10_19_0_0
   + 1.349030558128462 edge_10_20_0_0 - 0.1330337842051507 edge_10_21_0_0
   + 4.085872850209469 edge_10_22_0_0 + 0.0306688281559674 edge_11_9_0_0
   + 1.001538929676581 edge_11_12_0_0 + 0.714286535104743 edge_11_13_0_0
   + 0.8458653939352739 edge_11_16_0_0 + 0.5752205266429037 edge_12_11_0_0
   - 0.0521981812440375 edge_13_2_0_0 - 0.0616455051857147 edge_13_3_0_0
   - 0.6767263811549277 edge_13_4_0_0 - 0.8663331678131074 edge_13_5_0_0
   - 0.8433036330697922 edge_13_7_0_0 + 0.2796065379690565 edge_13_8_0_0
   - 0.5829533592105761 edge_13_9_0_0 + 2.056938636476782 edge_13_11_0_0
   + 3.654900770849922 edge_13_12_0_0 + 1.036825604781871 edge_13_14_0_0
   + 0.327146088669609 edge_13_15_0_0 + 0.7546686039609338 edge_13_16_0_0
   + 1.08939928021164 edge_13_17_0_0 + 0.8389549459597304 edge_13_18_0_0
   + 0.1160785439704348 edge_13_19_0_0 + 0.2086764522867735 edge_13_20_0_0
   + 1.252759248344 edge_13_22_0_0 + 0.0731200107049384 edge_15_11_0_0
   - 0.0278787987121154 edge_15_13_0_0 + 0.7561642946906382 edge_16_2_0_0
   + 1.125260483668613 edge_16_3_0_0 - 0.2421435116519496 edge_16_4_0_0
   + 0.6322964730377653 edge_16_5_0_0
   - 9.5024825566584386e-04 edge_16_6_0_0
   + 0.7029990535939062 edge_16_7_0_0 + 1.450259640449115 edge_16_8_0_0
   + 0.68207980562518 edge_16_9_0_0 + 1.281013031268374 edge_16_10_0_0
   + 3.117936524334719 edge_16_11_0_0 + 1.17607654182611 edge_16_12_0_0
   + 2.835910642360226 edge_16_13_0_0 + 3.277788514080896 edge_16_14_0_0
   + 2.209037465512816 edge_16_15_0_0 - 0.4738159545179276 edge_16_16_0_0
   + 2.297671403136185 edge_16_17_0_0 + 1.517074872235666 edge_16_18_0_0
   + 0.6291660637800468 edge_16_19_0_0 + 1.101120155153586 edge_16_20_0_0
   + 0.0293154201155918 edge_16_21_0_0 + 2.575509492390923 edge_16_22_0_0
   - 1.616816367150803 edge_17_13_0_0 - 0.7430285432593895 edge_17_16_0_0
   + 0.12083441850865 edge_17_18_0_0 - 0.2024176559858911 edge_17_19_0_0
   - 0.2799483105179306 edge_18_13_0_0 - 0.1891661035451141 edge_18_16_0_0
   + 0.472189387147748 edge_18_17_0_0 + 0.7556606619829742 edge_18_19_0_0
   + 0.0593635353727402 edge_18_20_0_0 - 0.1703929789263457 edge_18_21_0_0
   - 1.19715077658914 edge_19_5_0_0 - 1.312272812448802 edge_19_6_0_0
   - 0.8134024930823545 edge_19_10_0_0 - 0.8349592600218235 edge_19_11_0_0
   - 0.9914189780111562 edge_19_13_0_0 - 0.5043652250965655 edge_19_16_0_0
   - 0.615859907800268 edge_19_17_0_0 + 0.6477302792283451 edge_19_18_0_0
   + 0.4559131482536193 edge_19_20_0_0 + 0.33740443899914 edge_19_21_0_0
   + 1.013957268852 edge_19_22_0_0 - 0.2482312697704443 edge_20_2_0_0
   + 0.0634207059878491 edge_20_3_0_0 - 0.4520995993590622 edge_20_4_0_0
   + 9.4619747600923612e-04 edge_20_5_0_0 - 1.673252922847887 edge_20_7_0_0
   + 0.3917387320879481 edge_20_8_0_0 + 0.2603758136992381 edge_20_9_0_0
   + 0.2515185023975464 edge_20_10_0_0 + 0.038269787680123 edge_20_11_0_0
   + 0.2636371242803713 edge_20_12_0_0 + 0.5479735092034572 edge_20_13_0_0
   + 1.037928506449663 edge_20_16_0_0 + 0.6076574549707409 edge_20_17_0_0
   + 1.928081037398124 edge_20_18_0_0 + 2.657606727283332 edge_20_19_0_0
   + 2.367782330037748 edge_20_21_0_0 + 2.5008087321216 edge_20_22_0_0
   + 0.0351617351278659 edge_21_19_0_0 + 0.7770412411019032 edge_21_22_0_0
   - 0.6980354755437599 edge_22_20_0_0 - 0.7542821336953078 edge_22_21_0_0
Subject To
 one_parent_1: = 1
 consume_one_flow_unit_1: = 1
 one_parent_2: edge_0_2_0_0 + edge_3_2_0_0 + edge_4_2_0_0 + edge_5_2_0_0
   + edge_7_2_0_0 + edge_9_2_0_0 + edge_10_2_0_0 + edge_13_2_0_0
   + edge_16_2_0_0 + edge_20_2_0_0 = 1
 consume_one_flow_unit_2: flow_0_2_0_0 - flow_2_3_0_0 - flow_2_4_0_0
   - flow_2_5_0_0 - flow_2_6_0_0 - flow_2_7_0_0 - flow_2_8_0_0
   - flow_2_9_0_0 - flow_2_10_0_0 - flow_2_13_0_0 - flow_2_16_0_0
   - flow_2_17_0_0 - flow_2_18_0_0 - flow_2_19_0_0 - flow_2_20_0_0
   + flow_3_2_0_0 + flow_4_2_0_0 + flow_5_2_0_0 + flow_7_2_0_0
   + flow_9_2_0_0 + flow_10_2_0_0 + flow_13_2_0_0 + flow_16_2_0_0
   + flow_20_2_0_0 = 1
 one_parent_3: edge_0_3_0_0 + edge_2_3_0_0 + edge_4_3_0_0 + edge_5_3_0_0
   + edge_6_3_0_0 + edge_7_3_0_0 + edge_9_3_0_0 + edge_10_3_0_0
   + edge_13_3_0_0 + edge_16_3_0_0 + edge_20_3_0_0 = 1
 consume_one_flow_unit_3: flow_0_3_0_0 + flow_2_3_0_0 - flow_3_2_0_0
   - flow_3_4_0_0 - flow_3_5_0_0 - flow_3_6_0_0 - flow_3_7_0_0
   - flow_3_8_0_0 - flow_3_9_0_0 - flow_3_10_0_0 - flow_3_16_0_0
   - flow_3_17_0_0 - flow_3_18_0_0 - flow_3_19_0_0 - flow_3_20_0_0
   - flow_3_22_0_0 + flow_4_3_0_0 + flow_5_3_0_0 + flow_6_3_0_0
   + flow_7_3_0_0 + flow_9_3_0_0 + flow_10_3_0_0 + flow_13_3_0_0
   + flow_16_3_0_0 + flow_20_3_0_0 = 1
 one_parent_4: edge_0_4_0_0 + edge_2_4_0_0 + edge_3_4_0_0 + edge_5_4_0_0
   + edge_6_4_0_0 + edge_7_4_0_0 + edge_8_4_0_0 + edge_9_4_0_0
   + edge_10_4_0_0 + edge_13_4_0_0 + edge_16_4_0_0 + edge_20_4_0_0 = 1
 consume_one_flow_unit_4: flow_0_4_0_0 + flow_2_4_0_0 + flow_3_4_0_0
   - flow_4_2_0_0 - flow_4_3_0_0 - flow_4_5_0_0 - flow_4_6_0_0
   - flow_4_7_0_0 - flow_4_8_0_0 - flow_4_9_0_0 - flow_4_10_0_0
   - flow_4_11_0_0 - flow_4_16_0_0 - flow_4_17_0_0 - flow_4_18_0_0
   - flow_4_20_0_0 - flow_4_22_0_0 + flow_5_4_0_0 + flow_6_4_0_0
   + flow_7_4_0_0 + flow_8_4_0_0 + flow_9_4_0_0 + flow_10_4_0_0
   + flow_13_4_0_0 + flow_16_4_0_0 + flow_20_4_0_0 = 1
 one_parent_5: edge_0_5_0_0 + edge_2_5_0_0 + edge_3_5_0_0 + edge_4_5_0_0
   + edge_6_5_0_0 + edge_7_5_0_0 + edge_9_5_0_0 + edge_10_5_0_0
   + edge_13_5_0_0 + edge_16_5_0_0 + edge_19_5_0_0 + edge_20_5_0_0 = 1
 consume_one_flow_unit_5: flow_0_5_0_0 + flow_2_5_0_0 + flow_3_5_0_0
   + flow_4_5_0_0 - flow_5_2_0_0 - flow_5_3_0_0 - flow_5_4_0_0
   - flow_5_6_0_0 - flow_5_7_0_0 - flow_5_8_0_0 - flow_5_9_0_0
   - flow_5_10_0_0 - flow_5_11_0_0 - flow_5_12_0_0 - flow_5_13_0_0
   - flow_5_16_0_0 - flow_5_17_0_0 - flow_5_18_0_0 - flow_5_19_0_0
   - flow_5_20_0_0 - flow_5_21_0_0 - flow_5_22_0_0 + flow_6_5_0_0
   + flow_7_5_0_0 + flow_9_5_0_0 + flow_10_5_0_0 + flow_13_5_0_0
   + flow_16_5_0_0 + flow_19_5_0_0 + flow_20_5_0_0 = 1
 one_parent_6: edge_0_6_0_0 + edge_2_6_0_0 + edge_3_6_0_0 + edge_4_6_0_0
   + edge_5_6_0_0 + edge_7_6_0_0 + edge_8_6_0_0 + edge_9_6_0_0
   + edge_10_6_0_0 + edge_16_6_0_0 + edge_19_6_0_0 = 1
 consume_one_flow_unit_6: flow_0_6_0_0 + flow_2_6_0_0 + flow_3_6_0_0
   + flow_4_6_0_0 + flow_5_6_0_0 - flow_6_3_0_0 - flow_6_4_0_0
   - flow_6_5_0_0 - flow_6_7_0_0 - flow_6_8_0_0 - flow_6_9_0_0
   - flow_6_10_0_0 - flow_6_11_0_0 + flow_7_6_0_0 + flow_8_6_0_0
   + flow_9_6_0_0 + flow_10_6_0_0 + flow_16_6_0_0 + flow_19_6_0_0 = 1
 one_parent_7: edge_0_7_0_0 + edge_2_7_0_0 + edge_3_7_0_0 + edge_4_7_0_0
   + edge_5_7_0_0 + edge_6_7_0_0 + edge_8_7_0_0 + edge_9_7_0_0
   + edge_10_7_0_0 + edge_13_7_0_0 + edge_16_7_0_0 + edge_20_7_0_0 = 1
 consume_one_flow_unit_7: flow_0_7_0_0 + flow_2_7_0_0 + flow_3_7_0_0
   + flow_4_7_0_0 + flow_5_7_0_0 + flow_6_7_0_0 - flow_7_2_0_0
   - flow_7_3_0_0 - flow_7_4_0_0 - flow_7_5_0_0 - flow_7_6_0_0
   - flow_7_8_0_0 - flow_7_9_0_0 - flow_7_10_0_0 - flow_7_11_0_0
   - flow_7_12_0_0 - flow_7_13_0_0 - flow_7_16_0_0 - flow_7_17_0_0
   - flow_7_18_0_0 - flow_7_19_0_0 - flow_7_20_0_0 - flow_7_21_0_0
   - flow_7_22_0_0 + flow_8_7_0_0 + flow_9_7_0_0 + flow_10_7_0_0
   + flow_13_7_0_0 + flow_16_7_0_0 + flow_20_7_0_0 = 1
 one_parent_8: edge_0_8_0_0 + edge_2_8_0_0 + edge_3_8_0_0 + edge_4_8_0_0
   + edge_5_8_0_0 + edge_6_8_0_0 + edge_7_8_0_0 + edge_9_8_0_0
   + edge_10_8_0_0 + edge_13_8_0_0 + edge_16_8_0_0 + edge_20_8_0_0 = 1
 consume_one_flow_unit_8: flow_0_8_0_0 + flow_2_8_0_0 + flow_3_8_0_0
   + flow_4_8_0_0 + flow_5_8_0_0 + flow_6_8_0_0 + flow_7_8_0_0
   - flow_8_4_0_0 - flow_8_6_0_0 - flow_8_7_0_0 - flow_8_10_0_0
   + flow_9_8_0_0 + flow_10_8_0_0 + flow_13_8_0_0 + flow_16_8_0_0
   + flow_20_8_0_0 = 1
 one_parent_9: edge_0_9_0_0 + edge_2_9_0_0 + edge_3_9_0_0 + edge_4_9_0_0
   + edge_5_9_0_0 + edge_6_9_0_0 + edge_7_9_0_0 + edge_10_9_0_0
   + edge_11_9_0_0 + edge_13_9_0_0 + edge_16_9_0_0 + edge_20_9_0_0 = 1
 consume_one_flow_unit_9: flow_0_9_0_0 + flow_2_9_0_0 + flow_3_9_0_0
   + flow_4_9_0_0 + flow_5_9_0_0 + flow_6_9_0_0 + flow_7_9_0_0
   - flow_9_2_0_0 - flow_9_3_0_0 - flow_9_4_0_0 - flow_9_5_0_0
   - flow_9_6_0_0 - flow_9_7_0_0 - flow_9_8_0_0 - flow_9_10_0_0
   - flow_9_11_0_0 - flow_9_12_0_0 - flow_9_13_0_0 - flow_9_14_0_0
   - flow_9_15_0_0 - flow_9_16_0_0 - flow_9_17_0_0 - flow_9_18_0_0
   - flow_9_19_0_0 - flow_9_20_0_0 - flow_9_22_0_0 + flow_10_9_0_0
   + flow_11_9_0_0 + flow_13_9_0_0 + flow_16_9_0_0 + flow_20_9_0_0 = 1
 one_parent_10: edge_0_10_0_0 + edge_2_10_0_0 + edge_3_10_0_0
   + edge_4_10_0_0 + edge_5_10_0_0 + edge_6_10_0_0 + edge_7_10_0_0
   + edge_8_10_0_0 + edge_9_10_0_0 + edge_16_10_0_0 + edge_19_10_0_0
   + edge_20_10_0_0 = 1
 consume_one_flow_unit_10: flow_0_10_0_0 + flow_2_10_0_0 + flow_3_10_0_0
   + flow_4_10_0_0 + flow_5_10_0_0 + flow_6_10_0_0 + flow_7_10_0_0
   + flow_8_10_0_0 + flow_9_10_0_0 - flow_10_2_0_0 - flow_10_3_0_0
   - flow_10_4_0_0 - flow_10_5_0_0 - flow_10_6_0_0 - flow_10_7_0_0
   - flow_10_8_0_0 - flow_10_9_0_0 - flow_10_11_0_0 - flow_10_12_0_0
   - flow_10_13_0_0 - flow_10_14_0_0 - flow_10_16_0_0 - flow_10_17_0_0
   - flow_10_18_0_0 - flow_10_19_0_0 - flow_10_20_0_0 - flow_10_21_0_0
   - flow_10_22_0_0 + flow_16_10_0_0 + flow_19_10_0_0 + flow_20_10_0_0 = 1
 one_parent_11: edge_4_11_0_0 + edge_5_11_0_0 + edge_6_11_0_0
   + edge_7_11_0_0 + edge_9_11_0_0 + edge_10_11_0_0 + edge_12_11_0_0
   + edge_13_11_0_0 + edge_15_11_0_0 + edge_16_11_0_0 + edge_19_11_0_0
   + edge_20_11_0_0 = 1
 consume_one_flow_unit_11: flow_4_11_0_0 + flow_5_11_0_0 + flow_6_11_0_0
   + flow_7_11_0_0 + flow_9_11_0_0 + flow_10_11_0_0 - flow_11_9_0_0
   - flow_11_12_0_0 - flow_11_13_0_0 - flow_11_16_0_0 + flow_12_11_0_0
   + flow_13_11_0_0 + flow_15_11_0_0 + flow_16_11_0_0 + flow_19_11_0_0
   + flow_20_11_0_0 = 1
 one_parent_12: edge_5_12_0_0 + edge_7_12_0_0 + edge_9_12_0_0
   + edge_10_12_0_0 + edge_11_12_0_0 + edge_13_12_0_0 + edge_16_12_0_0
   + edge_20_12_0_0 = 1
 consume_one_flow_unit_12: flow_5_12_0_0 + flow_7_12_0_0 + flow_9_12_0_0
   + flow_10_12_0_0 + flow_11_12_0_0 - flow_12_11_0_0 + flow_13_12_0_0
   + flow_16_12_0_0 + flow_20_12_0_0 = 1
 one_parent_13: edge_0_13_0_0 + edge_2_13_0_0 + edge_5_13_0_0
   + edge_7_13_0_0 + edge_9_13_0_0 + edge_10_13_0_0 + edge_11_13_0_0
   + edge_15_13_0_0 + edge_16_13_0_0 + edge_17_13_0_0 + edge_18_13_0_0
   + edge_19_13_0_0 + edge_20_13_0_0 = 1
 consume_one_flow_unit_13: flow_0_13_0_0 + flow_2_13_0_0 + flow_5_13_0_0
   + flow_7_13_0_0 + flow_9_13_0_0 + flow_10_13_0_0 + flow_11_13_0_0
   - flow_13_2_0_0 - flow_13_3_0_0 - flow_13_4_0_0 - flow_13_5_0_0
   - flow_13_7_0_0 - flow_13_8_0_0 - flow_13_9_0_0 - flow_13_11_0_0
   - flow_13_12_0_0 - flow_13_14_0_0 - flow_13_15_0_0 - flow_13_16_0_0
   - flow_13_17_0_0 - flow_13_18_0_0 - flow_13_19_0_0 - flow_13_20_0_0
   - flow_13_22_0_0 + flow_15_13_0_0 + flow_16_13_0_0 + flow_17_13_0_0
   + flow_18_13_0_0 + flow_19_13_0_0 + flow_20_13_0_0 = 1
 one_parent_14: edge_9_14_0_0 + edge_10_14_0_0 + edge_13_14_0_0
   + edge_16_14_0_0 = 1
 consume_one_flow_unit_14: flow_9_14_0_0 + flow_10_14_0_0 + flow_13_14_0_0
   + flow_16_14_0_0 = 1
 one_parent_15: edge_9_15_0_0 + edge_13_15_0_0 + edge_16_15_0_0 = 1
 consume_one_flow_unit_15: flow_9_15_0_0 + flow_13_15_0_0 - flow_15_11_0_0
   - flow_15_13_0_0 + flow_16_15_0_0 = 1
 one_parent_16: edge_0_16_0_0 + edge_2_16_0_0 + edge_3_16_0_0
   + edge_4_16_0_0 + edge_5_16_0_0 + edge_7_16_0_0 + edge_9_16_0_0
   + edge_10_16_0_0 + edge_11_16_0_0 + edge_13_16_0_0 + edge_16_16_0_0
   + edge_17_16_0_0 + edge_18_16_0_0 + edge_19_16_0_0 + edge_20_16_0_0 = 1
 consume_one_flow_unit_16: flow_0_16_0_0 + flow_2_16_0_0 + flow_3_16_0_0
   + flow_4_16_0_0 + flow_5_16_0_0 + flow_7_16_0_0 + flow_9_16_0_0
   + flow_10_16_0_0 + flow_11_16_0_0 + flow_13_16_0_0 - flow_16_2_0_0
   - flow_16_3_0_0 - flow_16_4_0_0 - flow_16_5_0_0 - flow_16_6_0_0
   - flow_16_7_0_0 - flow_16_8_0_0 - flow_16_9_0_0 - flow_16_10_0_0
   - flow_16_11_0_0 - flow_16_12_0_0 - flow_16_13_0_0 - flow_16_14_0_0
   - flow_16_15_0_0 - flow_16_17_0_0 - flow_16_18_0_0 - flow_16_19_0_0
   - flow_16_20_0_0 - flow_16_21_0_0 - flow_16_22_0_0 + flow_17_16_0_0
   + flow_18_16_0_0 + flow_19_16_0_0 + flow_20_16_0_0 = 1
 one_parent_17: edge_2_17_0_0 + edge_3_17_0_0 + edge_4_17_0_0
   + edge_5_17_0_0 + edge_7_17_0_0 + edge_9_17_0_0 + edge_10_17_0_0
   + edge_13_17_0_0 + edge_16_17_0_0 + edge_18_17_0_0 + edge_19_17_0_0
   + edge_20_17_0_0 = 1
 consume_one_flow_unit_17: flow_2_17_0_0 + flow_3_17_0_0 + flow_4_17_0_0
   + flow_5_17_0_0 + flow_7_17_0_0 + flow_9_17_0_0 + flow_10_17_0_0
   + flow_13_17_0_0 + flow_16_17_0_0 - flow_17_13_0_0 - flow_17_16_0_0
   - flow_17_18_0_0 - flow_17_19_0_0 + flow_18_17_0_0 + flow_19_17_0_0
   + flow_20_17_0_0 = 1
 one_parent_18: edge_2_18_0_0 + edge_3_18_0_0 + edge_4_18_0_0
   + edge_5_18_0_0 + edge_7_18_0_0 + edge_9_18_0_0 + edge_10_18_0_0
   + edge_13_18_0_0 + edge_16_18_0_0 + edge_17_18_0_0 + edge_19_18_0_0
   + edge_20_18_0_0 = 1
 consume_one_flow_unit_18: flow_2_18_0_0 + flow_3_18_0_0 + flow_4_18_0_0
   + flow_5_18_0_0 + flow_7_18_0_0 + flow_9_18_0_0 + flow_10_18_0_0
   + flow_13_18_0_0 + flow_16_18_0_0 + flow_17_18_0_0 - flow_18_13_0_0
   - flow_18_16_0_0 - flow_18_17_0_0 - flow_18_19_0_0 - flow_18_20_0_0
   - flow_18_21_0_0 + flow_19_18_0_0 + flow_20_18_0_0 = 1
 one_parent_19: edge_0_19_0_0 + edge_2_19_0_0 + edge_3_19_0_0
   + edge_5_19_0_0 + edge_7_19_0_0 + edge_9_19_0_0 + edge_10_19_0_0
   + edge_13_19_0_0 + edge_16_19_0_0 + edge_17_19_0_0 + edge_18_19_0_0
   + edge_20_19_0_0 + edge_21_19_0_0 = 1
 consume_one_flow_unit_19: flow_0_19_0_0 + flow_2_19_0_0 + flow_3_19_0_0
   + flow_5_19_0_0 + flow_7_19_0_0 + flow_9_19_0_0 + flow_10_19_0_0
   + flow_13_19_0_0 + flow_16_19_0_0 + flow_17_19_0_0 + flow_18_19_0_0
   - flow_19_5_0_0 - flow_19_6_0_0 - flow_19_10_0_0 - flow_19_11_0_0
   - flow_19_13_0_0 - flow_19_16_0_0 - flow_19_17_0_0 - flow_19_18_0_0
   - flow_19_20_0_0 - flow_19_21_0_0 - flow_19_22_0_0 + flow_20_19_0_0
   + flow_21_19_0_0 = 1
 one_parent_20: edge_0_20_0_0 + edge_2_20_0_0 + edge_3_20_0_0
   + edge_4_20_0_0 + edge_5_20_0_0 + edge_7_20_0_0 + edge_9_20_0_0
   + edge_10_20_0_0 + edge_13_20_0_0 + edge_16_20_0_0 + edge_18_20_0_0
   + edge_19_20_0_0 + edge_22_20_0_0 = 1
 consume_one_flow_unit_20: flow_0_20_0_0 + flow_2_20_0_0 + flow_3_20_0_0
   + flow_4_20_0_0 + flow_5_20_0_0 + flow_7_20_0_0 + flow_9_20_0_0
   + flow_10_20_0_0 + flow_13_20_0_0 + flow_16_20_0_0 + flow_18_20_0_0
   + flow_19_20_0_0 - flow_20_2_0_0 - flow_20_3_0_0 - flow_20_4_0_0
   - flow_20_5_0_0 - flow_20_7_0_0 - flow_20_8_0_0 - flow_20_9_0_0
   - flow_20_10_0_0 - flow_20_11_0_0 - flow_20_12_0_0 - flow_20_13_0_0
   - flow_20_16_0_0 - flow_20_17_0_0 - flow_20_18_0_0 - flow_20_19_0_0
   - flow_20_21_0_0 - flow_20_22_0_0 + flow_22_20_0_0 = 1
 one_parent_21: edge_5_21_0_0 + edge_7_21_0_0 + edge_10_21_0_0
   + edge_16_21_0_0 + edge_18_21_0_0 + edge_19_21_0_0 + edge_20_21_0_0
   + edge_22_21_0_0 = 1
 consume_one_flow_unit_21: flow_5_21_0_0 + flow_7_21_0_0 + flow_10_21_0_0
   + flow_16_21_0_0 + flow_18_21_0_0 + flow_19_21_0_0 + flow_20_21_0_0
   - flow_21_19_0_0 - flow_21_22_0_0 + flow_22_21_0_0 = 1
 one_parent_22: edge_3_22_0_0 + edge_4_22_0_0 + edge_5_22_0_0
   + edge_7_22_0_0 + edge_9_22_0_0 + edge_10_22_0_0 + edge_13_22_0_0
   + edge_16_22_0_0 + edge_19_22_0_0 + edge_20_22_0_0 + edge_21_22_0_0 = 1
 consume_one_flow_unit_22: flow_3_22_0_0 + flow_4_22_0_0 + flow_5_22_0_0
   + flow_7_22_0_0 + flow_9_22_0_0 + flow_10_22_0_0 + flow_13_22_0_0
   + flow_16_22_0_0 + flow_19_22_0_0 + flow_20_22_0_0 + flow_21_22_0_0
   - flow_22_20_0_0 - flow_22_21_0_0 = 1
 root_flow: flow_0_2_0_0 + flow_0_3_0_0 + flow_0_4_0_0 + flow_0_5_0_0
   + flow_0_6_0_0 + flow_0_7_0_0 + flow_0_8_0_0 + flow_0_9_0_0
   + flow_0_10_0_0 + flow_0_13_0_0 + flow_0_16_0_0 + flow_0_19_0_0
   + flow_0_20_0_0 = 22
 inactive_no_flow_0_2_0_0: flow_0_2_0_0 - 1000 edge_0_2_0_0 <= 0
 inactive_no_flow_0_3_0_0: flow_0_3_0_0 - 1000 edge_0_3_0_0 <= 0
 inactive_no_flow_0_4_0_0: flow_0_4_0_0 - 1000 edge_0_4_0_0 <= 0
 inactive_no_flow_0_5_0_0: flow_0_5_0_0 - 1000 edge_0_5_0_0 <= 0
 inactive_no_flow_0_6_0_0: flow_0_6_0_0 - 1000 edge_0_6_0_0 <= 0
 inactive_no_flow_0_7_0_0: flow_0_7_0_0 - 1000 edge_0_7_0_0 <= 0
 inactive_no_flow_0_8_0_0: flow_0_8_0_0 - 1000 edge_0_8_0_0 <= 0
 inactive_no_flow_0_9_0_0: flow_0_9_0_0 - 1000 edge_0_9_0_0 <= 0
 inactive_no_flow_0_10_0_0: flow_0_10_0_0 - 1000 edge_0_10_0_0 <= 0
 inactive_no_flow_0_13_0_0: flow_0_13_0_0 - 1000 edge_0_13_0_0 <= 0
 inactive_no_flow_0_16_0_0: flow_0_16_0_0 - 1000 edge_0_16_0_0 <= 0
 inactive_no_flow_0_19_0_0: flow_0_19_0_0 - 1000 edge_0_19_0_0 <= 0
 inactive_no_flow_0_20_0_0: flow_0_20_0_0 - 1000 edge_0_20_0_0 <= 0
 inactive_no_flow_2_3_0_0: flow_2_3_0_0 - 1000 edge_2_3_0_0 <= 0
 inactive_no_flow_2_4_0_0: flow_2_4_0_0 - 1000 edge_2_4_0_0 <= 0
 inactive_no_flow_2_5_0_0: flow_2_5_0_0 - 1000 edge_2_5_0_0 <= 0
 inactive_no_flow_2_6_0_0: flow_2_6_0_0 - 1000 edge_2_6_0_0 <= 0
 inactive_no_flow_2_7_0_0: flow_2_7_0_0 - 1000 edge_2_7_0_0 <= 0
 inactive_no_flow_2_8_0_0: flow_2_8_0_0 - 1000 edge_2_8_0_0 <= 0
 inactive_no_flow_2_9_0_0: flow_2_9_0_0 - 1000 edge_2_9_0_0 <= 0
 inactive_no_flow_2_10_0_0: flow_2_10_0_0 - 1000 edge_2_10_0_0 <= 0
 inactive_no_flow_2_13_0_0: flow_2_13_0_0 - 1000 edge_2_13_0_0 <= 0
 inactive_no_flow_2_16_0_0: flow_2_16_0_0 - 1000 edge_2_16_0_0 <= 0
 inactive_no_flow_2_17_0_0: flow_2_17_0_0 - 1000 edge_2_17_0_0 <= 0
 inactive_no_flow_2_18_0_0: flow_2_18_0_0 - 1000 edge_2_18_0_0 <= 0
 inactive_no_flow_2_19_0_0: flow_2_19_0_0 - 1000 edge_2_19_0_0 <= 0
 inactive_no_flow_2_20_0_0: flow_2_20_0_0 - 1000 edge_2_20_0_0 <= 0
 inactive_no_flow_3_2_0_0: flow_3_2_0_0 - 1000 edge_3_2_0_0 <= 0
 inactive_no_flow_3_4_0_0: flow_3_4_0_0 - 1000 edge_3_4_0_0 <= 0
 inactive_no_flow_3_5_0_0: flow_3_5_0_0 - 1000 edge_3_5_0_0 <= 0
 inactive_no_flow_3_6_0_0: flow_3_6_0_0 - 1000 edge_3_6_0_0 <= 0
 inactive_no_flow_3_7_0_0: flow_3_7_0_0 - 1000 edge_3_7_0_0 <= 0
 inactive_no_flow_3_8_0_0: flow_3_8_0_0 - 1000 edge_3_8_0_0 <= 0
 inactive_no_flow_3_9_0_0: flow_3_9_0_0 - 1000 edge_3_9_0_0 <= 0
 inactive_no_flow_3_10_0_0: flow_3_10_0_0 - 1000 edge_3_10_0_0 <= 0
 inactive_no_flow_3_16_0_0: flow_3_16_0_0 - 1000 edge_3_16_0_0 <= 0
 inactive_no_flow_3_17_0_0: flow_3_17_0_0 - 1000 edge_3_17_0_0 <= 0
 inactive_no_flow_3_18_0_0: flow_3_18_0_0 - 1000 edge_3_18_0_0 <= 0
 inactive_no_flow_3_19_0_0: flow_3_19_0_0 - 1000 edge_3_19_0_0 <= 0
 inactive_no_flow_3_20_0_0: flow_3_20_0_0 - 1000 edge_3_20_0_0 <= 0
 inactive_no_flow_3_22_0_0: flow_3_22_0_0 - 1000 edge_3_22_0_0 <= 0
 inactive_no_flow_4_2_0_0: flow_4_2_0_0 - 1000 edge_4_2_0_0 <= 0
 inactive_no_flow_4_3_0_0: flow_4_3_0_0 - 1000 edge_4_3_0_0 <= 0
 inactive_no_flow_4_5_0_0: flow_4_5_0_0 - 1000 edge_4_5_0_0 <= 0
 inactive_no_flow_4_6_0_0: flow_4_6_0_0 - 1000 edge_4_6_0_0 <= 0
 inactive_no_flow_4_7_0_0: flow_4_7_0_0 - 1000 edge_4_7_0_0 <= 0
 inactive_no_flow_4_8_0_0: flow_4_8_0_0 - 1000 edge_4_8_0_0 <= 0
 inactive_no_flow_4_9_0_0: flow_4_9_0_0 - 1000 edge_4_9_0_0 <= 0
 inactive_no_flow_4_10_0_0: flow_4_10_0_0 - 1000 edge_4_10_0_0 <= 0
 inactive_no_flow_4_11_0_0: flow_4_11_0_0 - 1000 edge_4_11_0_0 <= 0
 inactive_no_flow_4_16_0_0: flow_4_16_0_0 - 1000 edge_4_16_0_0 <= 0
 inactive_no_flow_4_17_0_0: flow_4_17_0_0 - 1000 edge_4_17_0_0 <= 0
 inactive_no_flow_4_18_0_0: flow_4_18_0_0 - 1000 edge_4_18_0_0 <= 0
 inactive_no_flow_4_20_0_0: flow_4_20_0_0 - 1000 edge_4_20_0_0 <= 0
 inactive_no_flow_4_22_0_0: flow_4_22_0_0 - 1000 edge_4_22_0_0 <= 0
 inactive_no_flow_5_2_0_0: flow_5_2_0_0 - 1000 edge_5_2_0_0 <= 0
 inactive_no_flow_5_3_0_0: flow_5_3_0_0 - 1000 edge_5_3_0_0 <= 0
 inactive_no_flow_5_4_0_0: flow_5_4_0_0 - 1000 edge_5_4_0_0 <= 0
 inactive_no_flow_5_6_0_0: flow_5_6_0_0 - 1000 edge_5_6_0_0 <= 0
 inactive_no_flow_5_7_0_0: flow_5_7_0_0 - 1000 edge_5_7_0_0 <= 0
 inactive_no_flow_5_8_0_0: flow_5_8_0_0 - 1000 edge_5_8_0_0 <= 0
 inactive_no_flow_5_9_0_0: flow_5_9_0_0 - 1000 edge_5_9_0_0 <= 0
 inactive_no_flow_5_10_0_0: flow_5_10_0_0 - 1000 edge_5_10_0_0 <= 0
 inactive_no_flow_5_11_0_0: flow_5_11_0_0 - 1000 edge_5_11_0_0 <= 0
 inactive_no_flow_5_12_0_0: flow_5_12_0_0 - 1000 edge_5_12_0_0 <= 0
 inactive_no_flow_5_13_0_0: flow_5_13_0_0 - 1000 edge_5_13_0_0 <= 0
 inactive_no_flow_5_16_0_0: flow_5_16_0_0 - 1000 edge_5_16_0_0 <= 0
 inactive_no_flow_5_17_0_0: flow_5_17_0_0 - 1000 edge_5_17_0_0 <= 0
 inactive_no_flow_5_18_0_0: flow_5_18_0_0 - 1000 edge_5_18_0_0 <= 0
 inactive_no_flow_5_19_0_0: flow_5_19_0_0 - 1000 edge_5_19_0_0 <= 0
 inactive_no_flow_5_20_0_0: flow_5_20_0_0 - 1000 edge_5_20_0_0 <= 0
 inactive_no_flow_5_21_0_0: flow_5_21_0_0 - 1000 edge_5_21_0_0 <= 0
 inactive_no_flow_5_22_0_0: flow_5_22_0_0 - 1000 edge_5_22_0_0 <= 0
 inactive_no_flow_6_3_0_0: flow_6_3_0_0 - 1000 edge_6_3_0_0 <= 0
 inactive_no_flow_6_4_0_0: flow_6_4_0_0 - 1000 edge_6_4_0_0 <= 0
 inactive_no_flow_6_5_0_0: flow_6_5_0_0 - 1000 edge_6_5_0_0 <= 0
 inactive_no_flow_6_7_0_0: flow_6_7_0_0 - 1000 edge_6_7_0_0 <= 0
 inactive_no_flow_6_8_0_0: flow_6_8_0_0 - 1000 edge_6_8_0_0 <= 0
 inactive_no_flow_6_9_0_0: flow_6_9_0_0 - 1000 edge_6_9_0_0 <= 0
 inactive_no_flow_6_10_0_0: flow_6_10_0_0 - 1000 edge_6_10_0_0 <= 0
 inactive_no_flow_6_11_0_0: flow_6_11_0_0 - 1000 edge_6_11_0_0 <= 0
 inactive_no_flow_7_2_0_0: flow_7_2_0_0 - 1000 edge_7_2_0_0 <= 0
 inactive_no_flow_7_3_0_0: flow_7_3_0_0 - 1000 edge_7_3_0_0 <= 0
 inactive_no_flow_7_4_0_0: flow_7_4_0_0 - 1000 edge_7_4_0_0 <= 0
 inactive_no_flow_7_5_0_0: flow_7_5_0_0 - 1000 edge_7_5_0_0 <= 0
 inactive_no_flow_7_6_0_0: flow_7_6_0_0 - 1000 edge_7_6_0_0 <= 0
 inactive_no_flow_7_8_0_0: flow_7_8_0_0 - 1000 edge_7_8_0_0 <= 0
 inactive_no_flow_7_9_0_0: flow_7_9_0_0 - 1000 edge_7_9_0_0 <= 0
 inactive_no_flow_7_10_0_0: flow_7_10_0_0 - 1000 edge_7_10_0_0 <= 0
 inactive_no_flow_7_11_0_0: flow_7_11_0_0 - 1000 edge_7_11_0_0 <= 0
 inactive_no_flow_7_12_0_0: flow_7_12_0_0 - 1000 edge_7_12_0_0 <= 0
 inactive_no_flow_7_13_0_0: flow_7_13_0_0 - 1000 edge_7_13_0_0 <= 0
 inactive_no_flow_7_16_0_0: flow_7_16_0_0 - 1000 edge_7_16_0_0 <= 0
 inactive_no_flow_7_17_0_0: flow_7_17_0_0 - 1000 edge_7_17_0_0 <= 0
 inactive_no_flow_7_18_0_0: flow_7_18_0_0 - 1000 edge_7_18_0_0 <= 0
 inactive_no_flow_7_19_0_0: flow_7_19_0_0 - 1000 edge_7_19_0_0 <= 0
 inactive_no_flow_7_20_0_0: flow_7_20_0_0 - 1000 edge_7_20_0_0 <= 0
 inactive_no_flow_7_21_0_0: flow_7_21_0_0 - 1000 edge_7_21_0_0 <= 0
 inactive_no_flow_7_22_0_0: flow_7_22_0_0 - 1000 edge_7_22_0_0 <= 0
 inactive_no_flow_8_4_0_0: flow_8_4_0_0 - 1000 edge_8_4_0_0 <= 0
 inactive_no_flow_8_6_0_0: flow_8_6_0_0 - 1000 edge_8_6_0_0 <= 0
 inactive_no_flow_8_7_0_0: flow_8_7_0_0 - 1000 edge_8_7_0_0 <= 0
 inactive_no_flow_8_10_0_0: flow_8_10_0_0 - 1000 edge_8_10_0_0 <= 0
 inactive_no_flow_9_2_0_0: flow_9_2_0_0 - 1000 edge_9_2_0_0 <= 0
 inactive_no_flow_9_3_0_0: flow_9_3_0_0 - 1000 edge_9_3_0_0 <= 0
 inactive_no_flow_9_4_0_0: flow_9_4_0_0 - 1000 edge_9_4_0_0 <= 0
 inactive_no_flow_9_5_0_0: flow_9_5_0_0 - 1000 edge_9_5_0_0 <= 0
 inactive_no_flow_9_6_0_0: flow_9_6_0_0 - 1000 edge_9_6_0_0 <= 0
 inactive_no_flow_9_7_0_0: flow_9_7_0_0 - 1000 edge_9_7_0_0 <= 0
 inactive_no_flow_9_8_0_0: flow_9_8_0_0 - 1000 edge_9_8_0_0 <= 0
 inactive_no_flow_9_10_0_0: flow_9_10_0_0 - 1000 edge_9_10_0_0 <= 0
 inactive_no_flow_9_11_0_0: flow_9_11_0_0 - 1000 edge_9_11_0_0 <= 0
 inactive_no_flow_9_12_0_0: flow_9_12_0_0 - 1000 edge_9_12_0_0 <= 0
 inactive_no_flow_9_13_0_0: flow_9_13_0_0 - 1000 edge_9_13_0_0 <= 0
 inactive_no_flow_9_14_0_0: flow_9_14_0_0 - 1000 edge_9_14_0_0 <= 0
 inactive_no_flow_9_15_0_0: flow_9_15_0_0 - 1000 edge_9_15_0_0 <= 0
 inactive_no_flow_9_16_0_0: flow_9_16_0_0 - 1000 edge_9_16_0_0 <= 0
 inactive_no_flow_9_17_0_0: flow_9_17_0_0 - 1000 edge_9_17_0_0 <= 0
 inactive_no_flow_9_18_0_0: flow_9_18_0_0 - 1000 edge_9_18_0_0 <= 0
 inactive_no_flow_9_19_0_0: flow_9_19_0_0 - 1000 edge_9_19_0_0 <= 0
 inactive_no_flow_9_20_0_0: flow_9_20_0_0 - 1000 edge_9_20_0_0 <= 0
 inactive_no_flow_9_22_0_0: flow_9_22_0_0 - 1000 edge_9_22_0_0 <= 0
 inactive_no_flow_10_2_0_0: flow_10_2_0_0 - 1000 edge_10_2_0_0 <= 0
 inactive_no_flow_10_3_0_0: flow_10_3_0_0 - 1000 edge_10_3_0_0 <= 0
 inactive_no_flow_10_4_0_0: flow_10_4_0_0 - 1000 edge_10_4_0_0 <= 0
 inactive_no_flow_10_5_0_0: flow_10_5_0_0 - 1000 edge_10_5_0_0 <= 0
 inactive_no_flow_10_6_0_0: flow_10_6_0_0 - 1000 edge_10_6_0_0 <= 0
 inactive_no_flow_10_7_0_0: flow_10_7_0_0 - 1000 edge_10_7_0_0 <= 0
 inactive_no_flow_10_8_0_0: flow_10_8_0_0 - 1000 edge_10_8_0_0 <= 0
 inactive_no_flow_10_9_0_0: flow_10_9_0_0 - 1000 edge_10_9_0_0 <= 0
 inactive_no_flow_10_11_0_0: flow_10_11_0_0 - 1000 edge_10_11_0_0 <= 0
 inactive_no_flow_10_12_0_0: flow_10_12_0_0 - 1000 edge_10_12_0_0 <= 0
 inactive_no_flow_10_13_0_0: flow_10_13_0_0 - 1000 edge_10_13_0_0 <= 0
 inactive_no_flow_10_14_0_0: flow_10_14_0_0 - 1000 edge_10_14_0_0 <= 0
 inactive_no_flow_10_16_0_0: flow_10_16_0_0 - 1000 edge_10_16_0_0 <= 0
 inactive_no_flow_10_17_0_0: flow_10_17_0_0 - 1000 edge_10_17_0_0 <= 0
 inactive_no_flow_10_18_0_0: flow_10_18_0_0 - 1000 edge_10_18_0_0 <= 0
 inactive_no_flow_10_19_0_0: flow_10_19_0_0 - 1000 edge_10_19_0_0 <= 0
 inactive_no_flow_10_20_0_0: flow_10_20_0_0 - 1000 edge_10_20_0_0 <= 0
 inactive_no_flow_10_21_0_0: flow_10_21_0_0 - 1000 edge_10_21_0_0 <= 0
 inactive_no_flow_10_22_0_0: flow_10_22_0_0 - 1000 edge_10_22_0_0 <= 0
 inactive_no_flow_11_9_0_0: flow_11_9_0_0 - 1000 edge_11_9_0_0 <= 0
 inactive_no_flow_11_12_0_0: flow_11_12_0_0 - 1000 edge_11_12_0_0 <= 0
 inactive_no_flow_11_13_0_0: flow_11_13_0_0 - 1000 edge_11_13_0_0 <= 0
 inactive_no_flow_11_16_0_0: flow_11_16_0_0 - 1000 edge_11_16_0_0 <= 0
 inactive_no_flow_12_11_0_0: flow_12_11_0_0 - 1000 edge_12_11_0_0 <= 0
 inactive_no_flow_13_2_0_0: flow_13_2_0_0 - 1000 edge_13_2_0_0 <= 0
 inactive_no_flow_13_3_0_0: flow_13_3_0_0 - 1000 edge_13_3_0_0 <= 0
 inactive_no_flow_13_4_0_0: flow_13_4_0_0 - 1000 edge_13_4_0_0 <= 0
 inactive_no_flow_13_5_0_0: flow_13_5_0_0 - 1000 edge_13_5_0_0 <= 0
 inactive_no_flow_13_7_0_0: flow_13_7_0_0 - 1000 edge_13_7_0_0 <= 0
 inactive_no_flow_13_8_0_0: flow_13_8_0_0 - 1000 edge_13_8_0_0 <= 0
 inactive_no_flow_13_9_0_0: flow_13_9_0_0 - 1000 edge_13_9_0_0 <= 0
 inactive_no_flow_13_11_0_0: flow_13_11_0_0 - 1000 edge_13_11_0_0 <= 0
 inactive_no_flow_13_12_0_0: flow_13_12_0_0 - 1000 edge_13_12_0_0 <= 0
 inactive_no_flow_13_14_0_0: flow_13_14_0_0 - 1000 edge_13_14_0_0 <= 0
 inactive_no_flow_13_15_0_0: flow_13_15_0_0 - 1000 edge_13_15_0_0 <= 0
 inactive_no_flow_13_16_0_0: flow_13_16_0_0 - 1000 edge_13_16_0_0 <= 0
 inactive_no_flow_13_17_0_0: flow_13_17_0_0 - 1000 edge_13_17_0_0 <= 0
 inactive_no_flow_13_18_0_0: flow_13_18_0_0 - 1000 edge_13_18_0_0 <= 0
 inactive_no_flow_13_19_0_0: flow_13_19_0_0 - 1000 edge_13_19_0_0 <= 0
 inactive_no_flow_13_20_0_0: flow_13_20_0_0 - 1000 edge_13_20_0_0 <= 0
 inactive_no_flow_13_22_0_0: flow_13_22_0_0 - 1000 edge_13_22_0_0 <= 0
 inactive_no_flow_15_11_0_0: flow_15_11_0_0 - 1000 edge_15_11_0_0 <= 0
 inactive_no_flow_15_13_0_0: flow_15_13_0_0 - 1000 edge_15_13_0_0 <= 0
 inactive_no_flow_16_2_0_0: flow_16_2_0_0 - 1000 edge_16_2_0_0 <= 0
 inactive_no_flow_16_3_0_0: flow_16_3_0_0 - 1000 edge_16_3_0_0 <= 0
 inactive_no_flow_16_4_0_0: flow_16_4_0_0 - 1000 edge_16_4_0_0 <= 0
 inactive_no_flow_16_5_0_0: flow_16_5_0_0 - 1000 edge_16_5_0_0 <= 0
 inactive_no_flow_16_6_0_0: flow_16_6_0_0 - 1000 edge_16_6_0_0 <= 0
 inactive_no_flow_16_7_0_0: flow_16_7_0_0 - 1000 edge_16_7_0_0 <= 0
 inactive_no_flow_16_8_0_0: flow_16_8_0_0 - 1000 edge_16_8_0_0 <= 0
 inactive_no_flow_16_9_0_0: flow_16_9_0_0 - 1000 edge_16_9_0_0 <= 0
 inactive_no_flow_16_10_0_0: flow_16_10_0_0 - 1000 edge_16_10_0_0 <= 0
 inactive_no_flow_16_11_0_0: flow_16_11_0_0 - 1000 edge_16_11_0_0 <= 0
 inactive_no_flow_16_12_0_0: flow_16_12_0_0 - 1000 edge_16_12_0_0 <= 0
 inactive_no_flow_16_13_0_0: flow_16_13_0_0 - 1000 edge_16_13_0_0 <= 0
 inactive_no_flow_16_14_0_0: flow_16_14_0_0 - 1000 edge_16_14_0_0 <= 0
 inactive_no_flow_16_15_0_0: flow_16_15_0_0 - 1000 edge_16_15_0_0 <= 0
 inactive_no_flow_16_16_0_0: flow_16_16_0_0 - 1000 edge_16_16_0_0 <= 0
 inactive_no_flow_16_17_0_0: flow_16_17_0_0 - 1000 edge_16_17_0_0 <= 0
 inactive_no_flow_16_18_0_0: flow_16_18_0_0 - 1000 edge_16_18_0_0 <= 0
 inactive_no_flow_16_19_0_0: flow_16_19_0_0 - 1000 edge_16_19_0_0 <= 0
 inactive_no_flow_16_20_0_0: flow_16_20_0_0 - 1000 edge_16_20_0_0 <= 0
 inactive_no_flow_16_21_0_0: flow_16_21_0_0 - 1000 edge_16_21_0_0 <= 0
 inactive_no_flow_16_22_0_0: flow_16_22_0_0 - 1000 edge_16_22_0_0 <= 0
 inactive_no_flow_17_13_0_0: flow_17_13_0_0 - 1000 edge_17_13_0_0 <= 0
 inactive_no_flow_17_16_0_0: flow_17_16_0_0 - 1000 edge_17_16_0_0 <= 0
 inactive_no_flow_17_18_0_0: flow_17_18_0_0 - 1000 edge_17_18_0_0 <= 0
 inactive_no_flow_17_19_0_0: flow_17_19_0_0 - 1000 edge_17_19_0_0 <= 0
 inactive_no_flow_18_13_0_0: flow_18_13_0_0 - 1000 edge_18_13_0_0 <= 0
 inactive_no_flow_18_16_0_0: flow_18_16_0_0 - 1000 edge_18_16_0_0 <= 0
 inactive_no_flow_18_17_0_0: flow_18_17_0_0 - 1000 edge_18_17_0_0 <= 0
 inactive_no_flow_18_19_0_0: flow_18_19_0_0 - 1000 edge_18_19_0_0 <= 0
 inactive_no_flow_18_20_0_0: flow_18_20_0_0 - 1000 edge_18_20_0_0 <= 0
 inactive_no_flow_18_21_0_0: flow_18_21_0_0 - 1000 edge_18_21_0_0 <= 0
 inactive_no_flow_19_5_0_0: flow_19_5_0_0 - 1000 edge_19_5_0_0 <= 0
 inactive_no_flow_19_6_0_0: flow_19_6_0_0 - 1000 edge_19_6_0_0 <= 0
 inactive_no_flow_19_10_0_0: flow_19_10_0_0 - 1000 edge_19_10_0_0 <= 0
 inactive_no_flow_19_11_0_0: flow_19_11_0_0 - 1000 edge_19_11_0_0 <= 0
 inactive_no_flow_19_13_0_0: flow_19_13_0_0 - 1000 edge_19_13_0_0 <= 0
 inactive_no_flow_19_16_0_0: flow_19_16_0_0 - 1000 edge_19_16_0_0 <= 0
 inactive_no_flow_19_17_0_0: flow_19_17_0_0 - 1000 edge_19_17_0_0 <= 0
 inactive_no_flow_19_18_0_0: flow_19_18_0_0 - 1000 edge_19_18_0_0 <= 0
 inactive_no_flow_19_20_0_0: flow_19_20_0_0 - 1000 edge_19_20_0_0 <= 0
 inactive_no_flow_19_21_0_0: flow_19_21_0_0 - 1000 edge_19_21_0_0 <= 0
 inactive_no_flow_19_22_0_0: flow_19_22_0_0 - 1000 edge_19_22_0_0 <= 0
 inactive_no_flow_20_2_0_0: flow_20_2_0_0 - 1000 edge_20_2_0_0 <= 0
 inactive_no_flow_20_3_0_0: flow_20_3_0_0 - 1000 edge_20_3_0_0 <= 0
 inactive_no_flow_20_4_0_0: flow_20_4_0_0 - 1000 edge_20_4_0_0 <= 0
 inactive_no_flow_20_5_0_0: flow_20_5_0_0 - 1000 edge_20_5_0_0 <= 0
 inactive_no_flow_20_7_0_0: flow_20_7_0_0 - 1000 edge_20_7_0_0 <= 0
 inactive_no_flow_20_8_0_0: flow_20_8_0_0 - 1000 edge_20_8_0_0 <= 0
 inactive_no_flow_20_9_0_0: flow_20_9_0_0 - 1000 edge_20_9_0_0 <= 0
 inactive_no_flow_20_10_0_0: flow_20_10_0_0 - 1000 edge_20_10_0_0 <= 0
 inactive_no_flow_20_11_0_0: flow_20_11_0_0 - 1000 edge_20_11_0_0 <= 0
 inactive_no_flow_20_12_0_0: flow_20_12_0_0 - 1000 edge_20_12_0_0 <= 0
 inactive_no_flow_20_13_0_0: flow_20_13_0_0 - 1000 edge_20_13_0_0 <= 0
 inactive_no_flow_20_16_0_0: flow_20_16_0_0 - 1000 edge_20_16_0_0 <= 0
 inactive_no_flow_20_17_0_0: flow_20_17_0_0 - 1000 edge_20_17_0_0 <= 0
 inactive_no_flow_20_18_0_0: flow_20_18_0_0 - 1000 edge_20_18_0_0 <= 0
 inactive_no_flow_20_19_0_0: flow_20_19_0_0 - 1000 edge_20_19_0_0 <= 0
 inactive_no_flow_20_21_0_0: flow_20_21_0_0 - 1000 edge_20_21_0_0 <= 0
 inactive_no_flow_20_22_0_0: flow_20_22_0_0 - 1000 edge_20_22_0_0 <= 0
 inactive_no_flow_21_19_0_0: flow_21_19_0_0 - 1000 edge_21_19_0_0 <= 0
 inactive_no_flow_21_22_0_0: flow_21_22_0_0 - 1000 edge_21_22_0_0 <= 0
 inactive_no_flow_22_20_0_0: flow_22_20_0_0 - 1000 edge_22_20_0_0 <= 0
 inactive_no_flow_22_21_0_0: flow_22_21_0_0 - 1000 edge_22_21_0_0 <= 0
Bounds
Binaries
 edge_0_2_0_0 edge_0_3_0_0 edge_0_4_0_0 edge_0_5_0_0 edge_0_6_0_0
 edge_0_7_0_0 edge_0_8_0_0 edge_0_9_0_0 edge_0_10_0_0 edge_0_13_0_0
 edge_0_16_0_0 edge_0_19_0_0 edge_0_20_0_0 edge_2_3_0_0 edge_2_4_0_0
 edge_2_5_0_0 edge_2_6_0_0 edge_2_7_0_0 edge_2_8_0_0 edge_2_9_0_0
 edge_2_10_0_0 edge_2_13_0_0 edge_2_16_0_0 edge_2_17_0_0 edge_2_18_0_0
 edge_2_19_0_0 edge_2_20_0_0 edge_3_2_0_0 edge_3_4_0_0 edge_3_5_0_0
 edge_3_6_0_0 edge_3_7_0_0 edge_3_8_0_0 edge_3_9_0_0 edge_3_10_0_0
 edge_3_16_0_0 edge_3_17_0_0 edge_3_18_0_0 edge_3_19_0_0 edge_3_20_0_0
 edge_3_22_0_0 edge_4_2_0_0 edge_4_3_0_0 edge_4_5_0_0 edge_4_6_0_0
 edge_4_7_0_0 edge_4_8_0_0 edge_4_9_0_0 edge_4_10_0_0 edge_4_11_0_0
 edge_4_16_0_0 edge_4_17_0_0 edge_4_18_0_0 edge_4_20_0_0 edge_4_22_0_0
 edge_5_2_0_0 edge_5_3_0_0 edge_5_4_0_0 edge_5_6_0_0 edge_5_7_0_0
 edge_5_8_0_0 edge_5_9_0_0 edge_5_10_0_0 edge_5_11_0_0 edge_5_12_0_0
 edge_5_13_0_0 edge_5_16_0_0 edge_5_17_0_0 edge_5_18_0_0 edge_5_19_0_0
 edge_5_20_0_0 edge_5_21_0_0 edge_5_22_0_0 edge_6_3_0_0 edge_6_4_0_0
 edge_6_5_0_0 edge_6_7_0_0 edge_6_8_0_0 edge_6_9_0_0 edge_6_10_0_0
 edge_6_11_0_0 edge_7_2_0_0 edge_7_3_0_0 edge_7_4_0_0 edge_7_5_0_0
 edge_7_6_0_0 edge_7_8_0_0 edge_7_9_0_0 edge_7_10_0_0 edge_7_11_0_0
 edge_7_12_0_0 edge_7_13_0_0 edge_7_16_0_0 edge_7_17_0_0 edge_7_18_0_0
 edge_7_19_0_0 edge_7_20_0_0 edge_7_21_0_0 edge_7_22_0_0 edge_8_4_0_0
 edge_8_6_0_0 edge_8_7_0_0 edge_8_10_0_0 edge_9_2_0_0 edge_9_3_0_0
 edge_9_4_0_0 edge_9_5_0_0 edge_9_6_0_0 edge_9_7_0_0 edge_9_8_0_0
 edge_9_10_0_0 edge_9_11_0_0 edge_9_12_0_0 edge_9_13_0_0 edge_9_14_0_0
 edge_9_15_0_0 edge_9_16_0_0 edge_9_17_0_0 edge_9_18_0_0 edge_9_19_0_0
 edge_9_20_0_0 edge_9_22_0_0 edge_10_2_0_0 edge_10_3_0_0 edge_10_4_0_0
 edge_10_5_0_0 edge_10_6_0_0 edge_10_7_0_0 edge_10_8_0_0 edge_10_9_0_0
 edge_10_11_0_0 edge_10_12_0_0 edge_10_13_0_0 edge_10_14_0_0 edge_10_16_0_0
 edge_10_17_0_0 edge_10_18_0_0 edge_10_19_0_0 edge_10_20_0_0 edge_10_21_0_0
 edge_10_22_0_0 edge_11_9_0_0 edge_11_12_0_0 edge_11_13_0_0 edge_11_16_0_0
 edge_12_11_0_0 edge_13_2_0_0 edge_13_3_0_0 edge_13_4_0_0 edge_13_5_0_0
 edge_13_7_0_0 edge_13_8_0_0 edge_13_9_0_0 edge_13_11_0_0 edge_13_12_0_0
 edge_13_14_0_0 edge_13_15_0_0 edge_13_16_0_0 edge_13_17_0_0 edge_13_18_0_0
 edge_13_19_0_0 edge_13_20_0_0 edge_13_22_0_0 edge_15_11_0_0 edge_15_13_0_0
 edge_16_2_0_0 edge_16_3_0_0 edge_16_4_0_0 edge_16_5_0_0 edge_16_6_0_0
 edge_16_7_0_0 edge_16_8_0_0 edge_16_9_0_0 edge_16_10_0_0 edge_16_11_0_0
 edge_16_12_0_0 edge_16_13_0_0 edge_16_14_0_0 edge_16_15_0_0 edge_16_16_0_0
 edge_16_17_0_0 edge_16_18_0_0 edge_16_19_0_0 edge_16_20_0_0 edge_16_21_0_0
 edge_16_22_0_0 edge_17_13_0_0 edge_17_16_0_0 edge_17_18_0_0 edge_17_19_0_0
 edge_18_13_0_0 edge_18_16_0_0 edge_18_17_0_0 edge_18_19_0_0 edge_18_20_0_0
 edge_18_21_0_0 edge_19_5_0_0 edge_19_6_0_0 edge_19_10_0_0 edge_19_11_0_0
 edge_19_13_0_0 edge_19_16_0_0 edge_19_17_0_0 edge_19_18_0_0 edge_19_20_0_0
 edge_19_21_0_0 edge_19_22_0_0 edge_20_2_0_0 edge_20_3_0_0 edge_20_4_0_0
 edge_20_5_0_0 edge_20_7_0_0 edge_20_8_0_0 edge_20_9_0_0 edge_20_10_0_0
 edge_20_11_0_0 edge_20_12_0_0 edge_20_13_0_0 edge_20_16_0_0 edge_20_17_0_0
 edge_20_18_0_0 edge_20_19_0_0 edge_20_21_0_0 edge_20_22_0_0 edge_21_19_0_0
 edge_21_22_0_0 edge_22_20_0_0 edge_22_21_0_0
End
